1 of 1 MIP starts provided solutions.
MIP start 'm1' defined initial solution with objective 102162.0000.
Tried aggregator 1 time.
MIP Presolve eliminated 0 rows and 1 columns.
Reduced MIP has 90100 rows, 60300 columns, and 18210000 nonzeros.
Reduced MIP has 30000 binaries, 0 generals, 0 SOSs, and 0 indicators.
Presolve time = 9.76 sec. (4732.59 ticks)
Probing time = 0.32 sec. (175.26 ticks)
Tried aggregator 1 time.
Reduced MIP has 90100 rows, 60300 columns, and 18210000 nonzeros.
Reduced MIP has 30000 binaries, 0 generals, 0 SOSs, and 0 indicators.
Presolve time = 11.98 sec. (5508.86 ticks)
Probing time = 0.32 sec. (175.25 ticks)
Clique table members: 100.
MIP emphasis: balance optimality and feasibility.
MIP search method: dynamic search.
Parallel mode: none, using 1 thread.
Root relaxation solution time = 22.67 sec. (16168.22 ticks)

        Nodes                                         Cuts/
   Node  Left     Objective  IInf  Best Integer    Best Bound    ItCnt     Gap

*     0+    0                       102162.0000   2.30066e+07    15067     --- 
      0     0   102172.8230    17   102162.0000   102172.8230    15067    0.01%
*     0+    0                       102163.0000   102172.8230    15067    0.01%

Root node processing (before b&c):
  Real time             =   84.75 sec. (64794.72 ticks)
Sequential b&c:
  Real time             =    0.00 sec. (0.00 ticks)
                          ------------
Total (root+branch&cut) =   84.75 sec. (64794.72 ticks)
